
******************************************************************************
This program contains Ipopt, a library for large-scale nonlinear optimization.
 Ipopt is released as open source code under the Eclipse Public License (EPL).
         For more information visit http://projects.coin-or.org/Ipopt

This version of Ipopt was compiled from source code available at
    https://github.com/IDAES/Ipopt as part of the Institute for the Design of
    Advanced Energy Systems Process Systems Engineering Framework (IDAES PSE
    Framework) Copyright (c) 2018-2019. See https://github.com/IDAES/idaes-pse.

This version of Ipopt was compiled using HSL, a collection of Fortran codes
    for large-scale scientific computation.  All technical papers, sales and
    publicity material resulting from use of the HSL codes within IPOPT must
    contain the following acknowledgement:
        HSL, a collection of Fortran codes for large-scale scientific
        computation. See http://www.hsl.rl.ac.uk.
******************************************************************************

This is Ipopt version 3.13.2, running with linear solver ma27.

Number of nonzeros in equality constraint Jacobian...:      808
Number of nonzeros in inequality constraint Jacobian.:        0
Number of nonzeros in Lagrangian Hessian.............:      702

Total number of variables............................:      351
                     variables with only lower bounds:      108
                variables with lower and upper bounds:      189
                     variables with only upper bounds:        0
Total number of equality constraints.................:      350
Total number of inequality constraints...............:        0
        inequality constraints with only lower bounds:        0
   inequality constraints with lower and upper bounds:        0
        inequality constraints with only upper bounds:        0

iter    objective    inf_pr   inf_du lg(mu)  ||d||  lg(rg) alpha_du alpha_pr  ls
   0  0.0000000e+00 1.85e+00 4.44e-16  -1.0 0.00e+00    -  0.00e+00 0.00e+00   0
   1  4.1773838e-03 1.74e+00 1.42e+05  -1.0 6.45e+04    -  1.04e-01 7.02e-02h  1
   2  7.3283853e-03 1.70e+00 1.38e+05  -1.0 5.98e+04    -  1.43e-01 2.45e-02h  1
   3  7.9154810e-03 1.69e+00 1.38e+05  -1.0 1.83e+05    -  7.22e-01 3.13e-03h  1
   4  3.0329957e+00 2.69e+00 3.11e+05  -1.0 1.94e+05    -  2.72e-01 8.18e-01h  1
   5  3.9771081e+00 2.18e+00 2.42e+05  -1.0 1.19e+05    -  7.54e-02 2.29e-01h  3
   6  8.2007641e+00 9.83e-01 4.19e+04  -1.0 9.45e+04    -  4.22e-01 9.90e-01h  1
   7  8.4012065e+00 3.20e-01 6.27e+03  -1.0 5.76e+03    -  8.87e-01 9.90e-01h  1
   8  8.4039419e+00 6.50e-02 1.38e+04  -1.0 8.06e+01    -  9.76e-01 9.90e-01h  1
   9  8.4281916e+00 4.72e-03 5.72e+02  -1.0 4.33e+02    -  9.90e-01 9.90e-01h  1
iter    objective    inf_pr   inf_du lg(mu)  ||d||  lg(rg) alpha_du alpha_pr  ls
  10  8.4037431e+00 3.11e-03 1.46e+08  -2.5 1.27e+03    -  9.97e-01 3.41e-01h  1
  11  8.4065164e+00 2.03e-05 5.50e+05  -2.5 4.92e+01    -  9.98e-01 9.97e-01h  1
  12  8.4064871e+00 5.78e-08 3.38e+08  -2.5 5.20e-01    -  1.00e+00 9.97e-01h  1
In iteration 12, 27 Slacks too small, adjusting variable bounds
  13  8.4064871e+00 1.64e-10 1.20e+11  -2.5 2.17e-04    -  1.00e+00 9.97e-01h  1
  14  8.4064871e+00 1.79e-12 2.61e-03  -2.5 7.01e-07    -  1.00e+00 1.00e+00h  1
  15  8.4036562e+00 1.46e-11 9.53e+07  -9.0 5.01e+01    -  1.00e+00 9.99e-01F  1
  16  8.4036562e+00 1.56e-12 1.43e-08  -9.0 1.67e-05    -  1.00e+00 1.00e+00h  1

Number of Iterations....: 16

                                   (scaled)                 (unscaled)
Objective...............:   8.4036561640489893e+00    8.4036561640489893e+00
Dual infeasibility......:   1.4260876923799515e-08    1.4260876923799515e-08
Constraint violation....:   1.4763198271091797e-12    1.5638601524869955e-12
Complementarity.........:   9.0909125099169846e-10    9.0909125099169846e-10
Overall NLP error.......:   5.7162472274704414e-10    1.4260876923799515e-08


Number of objective function evaluations             = 22
Number of objective gradient evaluations             = 17
Number of equality constraint evaluations            = 22
Number of inequality constraint evaluations          = 0
Number of equality constraint Jacobian evaluations   = 17
Number of inequality constraint Jacobian evaluations = 0
Number of Lagrangian Hessian evaluations             = 16
Total CPU secs in IPOPT (w/o function evaluations)   =      0.035
Total CPU secs in NLP function evaluations           =      0.320

EXIT: Optimal Solution Found.
